sat
(:arith-branch          4
 :arith-cube-calls      1
 :arith-dio-calls       4
 :arith-gcd-calls       5
 :arith-lower           23
 :arith-make-feasible   7
 :arith-max-columns     60
 :arith-max-rows        31
 :arith-patches         5
 :arith-patches-success 1
 :arith-upper           11
 :decisions             4
 :final-checks          5
 :max-memory            19.42
 :memory                18.72
 :mk-bool-var           34
 :num-allocs            754430
 :num-checks            1
 :rlimit-count          6072
 :time                  0.03
 :total-time            0.07)
